Instance: Data/Instances_txt/inst_60_50_1.txt
SetUpTime: 36.867538928985596

Gurobi 10.0.1 (mac64[x86]) logging started Di  1 Aug 16:34:38 2023

Set parameter LogFile to value "Output/MILP_inst_60_50_1_2023-08-01_16-28-50.txt"
Set parameter TimeLimit to value 2700

Gurobi 10.0.1 (mac64[x86]) logging started Di  1 Aug 16:34:38 2023

Set parameter LogFile to value "Output/MILP_inst_60_50_1_2023-08-01_16-28-50.txt"
Gurobi Optimizer version 10.0.1 build v10.0.1rc0 (mac64[x86])

CPU model: Intel(R) Core(TM) i5-1038NG7 CPU @ 2.00GHz
Thread count: 4 physical cores, 8 logical processors, using up to 8 threads

Optimize a model with 121 rows, 42455 columns and 391190 nonzeros
Model fingerprint: 0x6f1f3593
Variable types: 0 continuous, 42455 integer (0 binary)
Coefficient statistics:
  Matrix range     [1e+00, 1e+00]
  Objective range  [6e+00, 6e+03]
  Bounds range     [1e+00, 1e+00]
  RHS range        [1e+00, 1e+00]
Presolve removed 0 rows and 59 columns
Presolve time: 1.07s
Presolved: 121 rows, 42396 columns, 390500 nonzeros
Variable types: 0 continuous, 42396 integer (42396 binary)
Found heuristic solution: objective 29481.000000

Root relaxation: objective 8.774544e+03, 2035 iterations, 1.45 seconds (2.45 work units)

    Nodes    |    Current Node    |     Objective Bounds      |     Work
 Expl Unexpl |  Obj  Depth IntInf | Incumbent    BestBd   Gap | It/Node Time

     0     0 8774.54371    0   84 29481.0000 8774.54371  70.2%     -    3s
     0     0 8779.43104    0   83 29481.0000 8779.43104  70.2%     -    3s
H    0     0                    23099.000000 8779.43104  62.0%     -    4s
     0     0 8793.83624    0   96 23099.0000 8793.83624  61.9%     -    5s
     0     0 8799.39926    0   96 23099.0000 8799.39926  61.9%     -   13s
H    0     0                    10898.000000 8799.39926  19.3%     -   13s
H    0     0                    10373.000000 8799.39926  15.2%     -   13s
     0     0 8845.01315    0  100 10373.0000 8845.01315  14.7%     -   15s
     0     0 8846.48356    0  104 10373.0000 8846.48356  14.7%     -   15s
     0     0 8847.41427    0  106 10373.0000 8847.41427  14.7%     -   15s
     0     0 8849.24921    0   96 10373.0000 8849.24921  14.7%     -   15s
     0     0 8849.69348    0   89 10373.0000 8849.69348  14.7%     -   16s
     0     0 8849.88136    0   91 10373.0000 8849.88136  14.7%     -   16s
     0     0 8850.00699    0  101 10373.0000 8850.00699  14.7%     -   16s
     0     0 8850.06030    0  109 10373.0000 8850.06030  14.7%     -   16s
     0     0 8850.08157    0   92 10373.0000 8850.08157  14.7%     -   16s
     0     0 8850.10586    0   93 10373.0000 8850.10586  14.7%     -   16s
     0     0 8850.10599    0   93 10373.0000 8850.10599  14.7%     -   16s
H    0     0                    9273.0000000 8850.10599  4.56%     -   19s
H    0     0                    9141.0000000 8850.10599  3.18%     -   19s
H    0     0                    9015.0000000 8850.10599  1.83%     -   19s
     0     0 8864.75442    0  119 9015.00000 8864.75442  1.67%     -   19s
     0     0 8865.18050    0  116 9015.00000 8865.18050  1.66%     -   19s
     0     0 8865.31982    0  115 9015.00000 8865.31982  1.66%     -   19s
     0     0 8865.36992    0  116 9015.00000 8865.36992  1.66%     -   19s
     0     0 8865.45090    0  116 9015.00000 8865.45090  1.66%     -   20s
     0     0 8865.50214    0  118 9015.00000 8865.50214  1.66%     -   20s
     0     0 8865.52744    0  116 9015.00000 8865.52744  1.66%     -   20s
     0     0 8865.56092    0  118 9015.00000 8865.56092  1.66%     -   20s
     0     0 8865.57502    0  116 9015.00000 8865.57502  1.66%     -   20s
     0     0 8865.59863    0  111 9015.00000 8865.59863  1.66%     -   20s
     0     0 8865.60020    0  112 9015.00000 8865.60020  1.66%     -   20s
     0     0 8866.32320    0  115 9015.00000 8866.32320  1.65%     -   20s
     0     0 8866.32320    0  119 9015.00000 8866.32320  1.65%     -   20s
     0     0 8866.32320    0  122 9015.00000 8866.32320  1.65%     -   20s
     0     0 8866.32320    0  117 9015.00000 8866.32320  1.65%     -   20s
     0     0 8866.32320    0  118 9015.00000 8866.32320  1.65%     -   20s
     0     0 8866.32320    0  118 9015.00000 8866.32320  1.65%     -   20s
     0     0 8866.32320    0  117 9015.00000 8866.32320  1.65%     -   20s
     0     0 8866.32320    0  118 9015.00000 8866.32320  1.65%     -   20s
     0     0 8866.32320    0  117 9015.00000 8866.32320  1.65%     -   20s
     0     0 8866.32320    0  116 9015.00000 8866.32320  1.65%     -   20s
     0     0 8866.32320    0  117 9015.00000 8866.32320  1.65%     -   20s
     0     0 8866.91742    0  121 9015.00000 8866.91742  1.64%     -   21s
     0     0 8866.92465    0  126 9015.00000 8866.92465  1.64%     -   21s
     0     0 8866.93366    0  120 9015.00000 8866.93366  1.64%     -   21s
     0     0 8866.94275    0  122 9015.00000 8866.94275  1.64%     -   21s
     0     0 8866.94325    0  118 9015.00000 8866.94325  1.64%     -   21s
     0     0 8866.94614    0  122 9015.00000 8866.94614  1.64%     -   21s
     0     0 8866.95017    0  129 9015.00000 8866.95017  1.64%     -   21s
     0     0 8866.95062    0  126 9015.00000 8866.95062  1.64%     -   21s
     0     0 8866.95225    0  123 9015.00000 8866.95225  1.64%     -   21s
     0     0 8866.95615    0  124 9015.00000 8866.95615  1.64%     -   21s
     0     0 8866.95625    0  115 9015.00000 8866.95625  1.64%     -   21s
     0     0 8866.96411    0  124 9015.00000 8866.96411  1.64%     -   21s
     0     0 8866.96446    0  115 9015.00000 8866.96446  1.64%     -   21s
     0     0 8900.51687    0  133 9015.00000 8900.51687  1.27%     -   22s
     0     0 8900.90476    0   79 9015.00000 8900.90476  1.27%     -   23s
     0     0 8909.73485    0   85 9015.00000 8909.73485  1.17%     -   23s
     0     0 8913.24815    0   79 9015.00000 8913.24815  1.13%     -   23s
     0     0 8926.02313    0   88 9015.00000 8926.02313  0.99%     -   23s
     0     0 8934.54586    0   85 9015.00000 8934.54586  0.89%     -   23s
     0     0 8940.12823    0   89 9015.00000 8940.12823  0.83%     -   23s
     0     0 8945.89461    0   88 9015.00000 8945.89461  0.77%     -   23s
     0     0 8949.59789    0   90 9015.00000 8949.59789  0.73%     -   23s
     0     0 8954.19637    0   92 9015.00000 8954.19637  0.67%     -   23s
     0     0 8956.43277    0   86 9015.00000 8956.43277  0.65%     -   23s
     0     0 8957.78820    0   81 9015.00000 8957.78820  0.63%     -   23s
     0     0 8993.94635    0   87 9015.00000 8993.94635  0.23%     -   23s

Cutting planes:
  Clique: 8
  Zero half: 6
  RLT: 22

Explored 1 nodes (8986 simplex iterations) in 23.73 seconds (24.09 work units)
Thread count was 8 (of 8 available processors)

Solution count 7: 9015 9141 9273 ... 29481

Optimal solution found (tolerance 1.00e-04)
Best objective 9.015000000000e+03, best bound 9.015000000000e+03, gap 0.0000%

User-callback calls 2936, time in user-callback 0.01 sec

=========================

OUTPUT STATISTICS
Relaxed: false
Time since start: 61.76119303703308
SetUpTime: 36.867538928985596
Objective value: 9015.0
Number of variables: 42455
Solving time: 24.87039089202881
